
Gurobi 9.1.1 (linux64, Python) logging started Sun Apr 11 14:15:06 2021

Academic license - for non-commercial use only - expires 2021-05-31
Using license file /home/ramil/gurobi.lic
Set parameter LogFile to value gurobi.log
